# Solution for model GasLib-40
# Objective value = 1.1288516678485260e+01
loadshed[innode_1] 0
loadshed[innode_2] 0
loadshed[innode_3] 0
loadshed[innode_4] 0
loadshed[innode_5] 0
loadshed[innode_6] 0
loadshed[innode_7] 0
loadshed[innode_8] 0
loadshed[source_1] -1.5816564764667240e-01
loadshed[source_2] 7.0323120197761657e-03
loadshed[source_3] 2.2253884415757952e-01
loadshed[sink_1] 0
loadshed[sink_2] 0
loadshed[sink_3] 0
loadshed[sink_4] 0
loadshed[sink_5] 0
loadshed[sink_6] 0
loadshed[sink_7] 0
loadshed[sink_8] 0
loadshed[sink_9] 0
loadshed[sink_10] 0
loadshed[sink_11] 0
loadshed[sink_12] 6.9025324913030883e-01
loadshed[sink_13] 0
loadshed[sink_14] 0
loadshed[sink_15] 0
loadshed[sink_16] 0
loadshed[sink_17] 0
loadshed[sink_18] 0
loadshed[sink_19] 0
loadshed[sink_20] 0
loadshed[sink_21] 0
loadshed[sink_22] 0
loadshed[sink_23] 0
loadshed[sink_24] 0
loadshed[sink_25] 0
loadshed[sink_26] 0
loadshed[sink_27] 0
loadshed[sink_28] 0
loadshed[sink_29] 0
flow[source_1,sink_3] 1.8309472894914234e+02
flow[innode_1,sink_16] 1.6354166666666970e+01
flow[innode_6,sink_13] -8.4298834218937628e+00
flow[sink_13,sink_14] -2.4784050088560431e+01
flow[sink_14,sink_10] -41.1382167552271
flow[sink_25,sink_26] 1.7520795392750313e+02
flow[sink_26,sink_9] 1.3589898332151515e+02
flow[sink_9,sink_18] 1.1954481665484847e+02
flow[sink_26,sink_4] 2.2954803939321494e+01
flow[sink_4,sink_20] -1.6857777127767086e+01
flow[sink_18,sink_6] 1.0319064998818180e+02
flow[sink_25,innode_8] -1.5038639561580598e+02
flow[sink_6,sink_7] 5.4128149988181420e+01
flow[sink_6,sink_22] 3.2708333333333641e+01
flow[sink_7,sink_24] 3.7773983321514748e+01
flow[sink_22,sink_1] 1.6354166666666970e+01
flow[sink_24,sink_21] 2.1419816654848077e+01
flow[sink_21,sink_12] 5.0656499881814083e+00
flow[sink_7,sink_5] 0
flow[sink_5,sink_17] -1.6354166666667197e+01
flow[sink_17,sink_4] -2.3458414400421912e+01
flow[sink_17,sink_8] -9.2499189329119531e+00
flow[sink_3,sink_23] 16.3541666666697
flow[sink_8,sink_20] -2.5604085599578621e+01
flow[sink_25,sink_20] 5.8816029394012389e+01
flow[sink_25,sink_15] -9.1561870950483438e+01
flow[sink_15,sink_29] -6.0460477138760567e+01
flow[sink_29,sink_28] 1.6354166666667879e+01
flow[sink_29,sink_2] 6.3809727145056208e+01
flow[sink_2,sink_15] 4.7455560478389543e+01
flow[sink_29,innode_7] -1.5697853761715135e+02
flow[innode_4,sink_19] 4.7798866287319257e+01
flow[sink_19,innode_3] 4.4017569039532319e+01
flow[innode_4,innode_5] 7.5110183801241163e+01
flow[sink_27,innode_5] -7.5110183801241163e+01
flow[sink_27,sink_19] 5.8756017134574492e+01
flow[sink_10,sink_11] 3.2708333333333641e+01
flow[sink_10,innode_2] -4.6183147715695085e+01
flow[sink_10,innode_3] -4.4017569039532319e+01
flow[innode_6,sink_25] 8.4298834218937628e+00
flow[sink_11,innode_1] 1.6354166666666970e+01
flow[sink_19,innode_2] 4.6183147715695085e+01
flow[source_3,innode_4] 1.2290905008856042e+02
flow[source_2,innode_7] 1.5697853761715135e+02
flow[sink_3,innode_8] 1.5038639561580598e+02
pressure[innode_1] 7.6484124727470117e+01
pressure[innode_2] 7.9076796134495240e+01
pressure[innode_3] 7.8979324212306167e+01
pressure[innode_4] 81.01325
pressure[innode_5] 8.0961585255009254e+01
pressure[innode_6] 7.4599220439305611e+01
pressure[innode_7] 81.01325
pressure[innode_8] 8.0401234265844693e+01
pressure[source_1] 81.01325
pressure[source_2] 81.01325
pressure[source_3] 81.01325
pressure[sink_1] 4.4943459265286521e+01
pressure[sink_2] 7.5198316679226579e+01
pressure[sink_3] 8.0401234265844693e+01
pressure[sink_4] 5.9340893955586765e+01
pressure[sink_5] 5.7226123503578343e+01
pressure[sink_6] 4.7044536875673892e+01
pressure[sink_7] 4.6301486398318083e+01
pressure[sink_8] 5.8793414180970323e+01
pressure[sink_9] 5.4125522240703312e+01
pressure[sink_10] 7.6635826035073663e+01
pressure[sink_11] 7.6484124727470117e+01
pressure[sink_12] 1.0132499999999993e+00
pressure[sink_13] 7.4645692977846124e+01
pressure[sink_14] 7.4690046146613867e+01
pressure[sink_15] 75.0433847333017
pressure[sink_16] 7.5462474892652438e+01
pressure[sink_17] 5.8444390708933092e+01
pressure[sink_18] 4.9800034469299682e+01
pressure[sink_19] 7.9076796134495240e+01
pressure[sink_20] 6.0577658870065392e+01
pressure[sink_21] 2.8158855098987234e+00
pressure[sink_22] 4.6007228407641534e+01
pressure[sink_23] 80.2365162541849
pressure[sink_24] 3.0530900779680081e+00
pressure[sink_25] 7.4599220439305611e+01
pressure[sink_26] 6.2259427138116848e+01
pressure[sink_27] 8.0338309518155484e+01
pressure[sink_28] 76.5194068078386
pressure[sink_29] 7.6814689081455782e+01
interdiction[source_1,sink_3] 0
interdiction[innode_1,sink_16] 0
interdiction[innode_6,sink_13] 0
interdiction[sink_13,sink_14] 0
interdiction[sink_14,sink_10] 0
interdiction[sink_25,sink_26] 0
interdiction[sink_26,sink_9] 0
interdiction[sink_9,sink_18] 0
interdiction[sink_26,sink_4] 0
interdiction[sink_4,sink_20] 0
interdiction[sink_18,sink_6] 0
interdiction[sink_25,innode_8] 0
interdiction[sink_6,sink_7] 0
interdiction[sink_6,sink_22] 0
interdiction[sink_7,sink_24] 0
interdiction[sink_22,sink_1] 0
interdiction[sink_24,sink_21] 0
interdiction[sink_21,sink_12] 0
interdiction[sink_7,sink_5] 1
interdiction[sink_5,sink_17] 0
interdiction[sink_17,sink_4] 0
interdiction[sink_17,sink_8] 0
interdiction[sink_3,sink_23] 0
interdiction[sink_8,sink_20] 0
interdiction[sink_25,sink_20] 0
interdiction[sink_25,sink_15] 0
interdiction[sink_15,sink_29] 0
interdiction[sink_29,sink_28] 0
interdiction[sink_29,sink_2] 0
interdiction[sink_2,sink_15] 0
interdiction[sink_29,innode_7] 0
interdiction[innode_4,sink_19] 0
interdiction[sink_19,innode_3] 0
interdiction[innode_4,innode_5] 0
interdiction[sink_27,innode_5] 0
interdiction[sink_27,sink_19] 0
interdiction[sink_10,sink_11] 0
interdiction[sink_10,innode_2] 0
interdiction[sink_10,innode_3] 0
interdiction[innode_6,sink_25] 0
interdiction[sink_11,innode_1] 0
interdiction[sink_19,innode_2] 0
interdiction[source_3,innode_4] 0
interdiction[source_2,innode_7] 0
interdiction[sink_3,innode_8] 0
WCcheckFlow[source_1,sink_3] 39
WCcheckFlow[innode_1,sink_16] 1
WCcheckFlow[innode_6,sink_13] 13
WCcheckFlow[sink_13,sink_14] 12
WCcheckFlow[sink_14,sink_10] 11
WCcheckFlow[sink_25,sink_26] 15
WCcheckFlow[sink_26,sink_9] 9
WCcheckFlow[sink_9,sink_18] 8
WCcheckFlow[sink_26,sink_4] 5
WCcheckFlow[sink_4,sink_20] 1
WCcheckFlow[sink_18,sink_6] 7
WCcheckFlow[sink_25,innode_8] -36
WCcheckFlow[sink_6,sink_7] 4
WCcheckFlow[sink_6,sink_22] 2
WCcheckFlow[sink_7,sink_24] 3
WCcheckFlow[sink_22,sink_1] 1
WCcheckFlow[sink_24,sink_21] 2
WCcheckFlow[sink_21,sink_12] 1
WCcheckFlow[sink_7,sink_5] 0
WCcheckFlow[sink_5,sink_17] -1
WCcheckFlow[sink_17,sink_4] -3
WCcheckFlow[sink_17,sink_8] 1
WCcheckFlow[sink_3,sink_23] 1
WCcheckFlow[sink_8,sink_20] 0
WCcheckFlow[sink_25,sink_20] 0
WCcheckFlow[sink_25,sink_15] 6
WCcheckFlow[sink_15,sink_29] 5
WCcheckFlow[sink_29,sink_28] 1
WCcheckFlow[sink_29,sink_2] 1
WCcheckFlow[sink_2,sink_15] 0
WCcheckFlow[sink_29,innode_7] 2
WCcheckFlow[innode_4,sink_19] -4
WCcheckFlow[sink_19,innode_3] -5
WCcheckFlow[innode_4,innode_5] 2
WCcheckFlow[sink_27,innode_5] -1
WCcheckFlow[sink_27,sink_19] 0
WCcheckFlow[sink_10,sink_11] 3
WCcheckFlow[sink_10,innode_2] 1
WCcheckFlow[sink_10,innode_3] 6
WCcheckFlow[innode_6,sink_25] -14
WCcheckFlow[sink_11,innode_1] 2
WCcheckFlow[sink_19,innode_2] 0
WCcheckFlow[source_3,innode_4] -1
WCcheckFlow[source_2,innode_7] -1
WCcheckFlow[sink_3,innode_8] 37
